\ This file has been generated by DOcplex
\ ENCODING=ISO-8859-1
\Problem name: BMW

Minimize
 obj: x_1_1 + x_3_1 + x_5_1 + x_1_4 + x_3_4 + x_5_4
Subject To
 c1: z_(1,_2)_0 + z_(1,_2)_1 + z_(1,_2)_2 >= 1
 c2: z_(1,_2)_0 + z_(1,_2)_1 + z_(1,_2)_2 <= 2
 c3: z_(1,_2)_0 + z_(1,_2)_1 + z_(1,_2)_2 >= 1
 c4: z_(1,_2)_0 + z_(1,_2)_1 + z_(1,_2)_2 <= 2
 c5: z_(1,_3)_0 + z_(1,_3)_1 + z_(1,_3)_2 >= 1
 c6: z_(1,_3)_0 + z_(1,_3)_1 + z_(1,_3)_2 <= 3
 c7: z_(1,_3)_0 + z_(1,_3)_1 + z_(1,_3)_2 >= 1
 c8: z_(1,_3)_0 + z_(1,_3)_1 + z_(1,_3)_2 <= 3
 c9: z_(2,_2)_0 + z_(2,_2)_1 + z_(2,_2)_2 + z_(2,_2)_3 >= 1
 c10: z_(2,_2)_0 + z_(2,_2)_1 + z_(2,_2)_2 + z_(2,_2)_3 <= 4
 c11: z_(2,_2)_0 + z_(2,_2)_1 + z_(2,_2)_2 + z_(2,_2)_3 >= 1
 c12: z_(2,_2)_0 + z_(2,_2)_1 + z_(2,_2)_2 + z_(2,_2)_3 <= 4
 c13: z_(2,_2)_0 + z_(2,_2)_1 + z_(2,_2)_2 + z_(2,_2)_3 >= 1
 c14: z_(2,_2)_0 + z_(2,_2)_1 + z_(2,_2)_2 + z_(2,_2)_3 <= 4
 c15: z_(2,_2)_0 + z_(2,_2)_1 + z_(2,_2)_2 + z_(2,_2)_3 >= 1
 c16: z_(2,_2)_0 + z_(2,_2)_1 + z_(2,_2)_2 + z_(2,_2)_3 <= 4
 c17: z_(2,_2)_0 + z_(2,_2)_1 + z_(2,_2)_2 + z_(2,_2)_3 >= 1
 c18: z_(2,_2)_0 + z_(2,_2)_1 + z_(2,_2)_2 + z_(2,_2)_3 <= 4
 c19: z_(2,_2)_0 + z_(2,_2)_1 + z_(2,_2)_2 + z_(2,_2)_3 >= 1
 c20: z_(2,_2)_0 + z_(2,_2)_1 + z_(2,_2)_2 + z_(2,_2)_3 <= 4
 c21: z_(1,_3)_0 + z_(1,_3)_1 + z_(1,_3)_2 >= 1
 c22: z_(1,_3)_0 + z_(1,_3)_1 + z_(1,_3)_2 <= 3
 c23: z_(1,_3)_0 + z_(1,_3)_1 + z_(1,_3)_2 >= 1
 c24: z_(1,_3)_0 + z_(1,_3)_1 + z_(1,_3)_2 <= 3
 c25: z_(1,_2)_0 + z_(1,_2)_1 + z_(1,_2)_2 >= 1
 c26: z_(1,_2)_0 + z_(1,_2)_1 + z_(1,_2)_2 <= 2
 c27: z_(1,_2)_0 + z_(1,_2)_1 + z_(1,_2)_2 >= 1
 c28: z_(1,_2)_0 + z_(1,_2)_1 + z_(1,_2)_2 <= 2
 c29: z_(1,_2)_0 + z_(1,_2)_1 + z_(1,_2)_2 - x_1_1 - x_1_4 = 0
 c30: z_(1,_2)_0 + z_(1,_2)_1 + z_(1,_2)_2 - x_1_1 - x_1_4 = 0
 c31: z_(1,_3)_0 + z_(1,_3)_1 + z_(1,_3)_2 - x_1_1 - x_3_1 - x_1_4 = 0
 c32: z_(1,_3)_0 + z_(1,_3)_1 + z_(1,_3)_2 - x_1_1 - x_1_4 - x_3_4 = 0
 c33: z_(2,_2)_0 + z_(2,_2)_1 + z_(2,_2)_2 + z_(2,_2)_3 - x_1_1 - x_3_1 - x_1_4
      - x_3_4 = 0
 c34: z_(2,_2)_0 + z_(2,_2)_1 + z_(2,_2)_2 + z_(2,_2)_3 - x_1_1 - x_3_1 - x_1_4
      - x_3_4 = 0
 c35: z_(2,_2)_0 + z_(2,_2)_1 + z_(2,_2)_2 + z_(2,_2)_3 - x_1_1 - x_3_1 - x_5_1
      - x_3_4 = 0
 c36: z_(2,_2)_0 + z_(2,_2)_1 + z_(2,_2)_2 + z_(2,_2)_3 - x_3_1 - x_1_4 - x_3_4
      - x_5_4 = 0
 c37: z_(2,_2)_0 + z_(2,_2)_1 + z_(2,_2)_2 + z_(2,_2)_3 - x_3_1 - x_5_1 - x_3_4
      - x_5_4 = 0
 c38: z_(2,_2)_0 + z_(2,_2)_1 + z_(2,_2)_2 + z_(2,_2)_3 - x_3_1 - x_5_1 - x_3_4
      - x_5_4 = 0
 c39: z_(1,_3)_0 + z_(1,_3)_1 + z_(1,_3)_2 - x_3_1 - x_5_1 - x_5_4 = 0
 c40: z_(1,_3)_0 + z_(1,_3)_1 + z_(1,_3)_2 - x_5_1 - x_3_4 - x_5_4 = 0
 c41: z_(1,_2)_0 + z_(1,_2)_1 + z_(1,_2)_2 - x_5_1 - x_5_4 = 0
 c42: z_(1,_2)_0 + z_(1,_2)_1 + z_(1,_2)_2 - x_5_1 - x_5_4 = 0

Bounds
 0 <= x_1_1 <= 1
 0 <= x_3_1 <= 1
 0 <= x_5_1 <= 1
 0 <= x_1_4 <= 1
 0 <= x_3_4 <= 1
 0 <= x_5_4 <= 1
 0 <= z_(0,_2)_0 <= 1
 0 <= z_(0,_2)_1 <= 1
 0 <= z_(0,_3)_0 <= 1
 0 <= z_(0,_3)_1 <= 1
 0 <= z_(1,_2)_0 <= 1
 0 <= z_(1,_2)_1 <= 1
 0 <= z_(1,_2)_2 <= 1
 0 <= z_(1,_3)_0 <= 1
 0 <= z_(1,_3)_1 <= 1
 0 <= z_(1,_3)_2 <= 1
 0 <= z_(2,_2)_0 <= 1
 0 <= z_(2,_2)_1 <= 1
 0 <= z_(2,_2)_2 <= 1
 0 <= z_(2,_2)_3 <= 1
 0 <= z_(2,_3)_0 <= 1
 0 <= z_(2,_3)_1 <= 1
 0 <= z_(2,_3)_2 <= 1
 0 <= z_(2,_3)_3 <= 1
 0 <= z_(3,_2)_0 <= 1
 0 <= z_(3,_2)_1 <= 1
 0 <= z_(3,_2)_2 <= 1
 0 <= z_(3,_2)_3 <= 1
 0 <= z_(3,_3)_0 <= 1
 0 <= z_(3,_3)_1 <= 1
 0 <= z_(3,_3)_2 <= 1
 0 <= z_(3,_3)_3 <= 1
 0 <= z_(4,_2)_0 <= 1
 0 <= z_(4,_2)_1 <= 1
 0 <= z_(4,_2)_2 <= 1
 0 <= z_(4,_2)_3 <= 1
 0 <= z_(4,_3)_0 <= 1
 0 <= z_(4,_3)_1 <= 1
 0 <= z_(4,_3)_2 <= 1
 0 <= z_(4,_3)_3 <= 1
 0 <= z_(5,_2)_0 <= 1
 0 <= z_(5,_2)_1 <= 1
 0 <= z_(5,_2)_2 <= 1
 0 <= z_(5,_3)_0 <= 1
 0 <= z_(5,_3)_1 <= 1
 0 <= z_(5,_3)_2 <= 1
 0 <= z_(6,_2)_0 <= 1
 0 <= z_(6,_2)_1 <= 1
 0 <= z_(6,_3)_0 <= 1
 0 <= z_(6,_3)_1 <= 1

Binaries
 x_1_1 x_3_1 x_5_1 x_1_4 x_3_4 x_5_4 z_(0,_2)_0 z_(0,_2)_1 z_(0,_3)_0 z_(0,_3)_1
 z_(1,_2)_0 z_(1,_2)_1 z_(1,_2)_2 z_(1,_3)_0 z_(1,_3)_1 z_(1,_3)_2 z_(2,_2)_0
 z_(2,_2)_1 z_(2,_2)_2 z_(2,_2)_3 z_(2,_3)_0 z_(2,_3)_1 z_(2,_3)_2 z_(2,_3)_3
 z_(3,_2)_0 z_(3,_2)_1 z_(3,_2)_2 z_(3,_2)_3 z_(3,_3)_0 z_(3,_3)_1 z_(3,_3)_2
 z_(3,_3)_3 z_(4,_2)_0 z_(4,_2)_1 z_(4,_2)_2 z_(4,_2)_3 z_(4,_3)_0 z_(4,_3)_1
 z_(4,_3)_2 z_(4,_3)_3 z_(5,_2)_0 z_(5,_2)_1 z_(5,_2)_2 z_(5,_3)_0 z_(5,_3)_1
 z_(5,_3)_2 z_(6,_2)_0 z_(6,_2)_1 z_(6,_3)_0 z_(6,_3)_1
End
